DIMENSION :12
NODE_COORD_SECTION
1 -60.402799834051415 -21.75525235899724
2 37.0329230504332 69.00887443674665
3 -38.36969566380388 -16.66516485147673
4 29.798030875735407 80.23487219639813
5 -57.208552150199225 -73.91236652534292
6 24.91094569560704 55.397446127888514
7 68.45577547492871 28.61059451924055
8 79.33236533358075 -72.14547073579422
9 31.06268851613251 -67.376609568001
10 -80.64624613876983 84.56943088988606
11 -72.14991073950803 48.714667780517374
12 97.29889917464789 63.233336566924834
EOF
